NAME: fm_8
TYPE: ATSP
DIMENSION: 8
EDGE_WEIGHT_TYPE: EXPLICIT
EDGE_WEIGHT_FORMAT: FULL_MATRIX
EDGE_WEIGHT_SECTION
0 4 44 27 33 46 4 19 
50 0 1 3 7 35 47 20 
10 41 0 26 45 3 49 44 
38 20 39 0 19 4 30 24 
32 44 34 32 0 47 18 3 
33 16 39 50 20 0 27 42 
28 2 34 21 10 1 0 45 
37 13 46 20 3 19 19 0 
EOF
